(set-info :source |printed by MathSAT|)
(declare-fun call_voiture.flby3 () Bool)
(declare-fun move () Bool)
(declare-fun stop () Bool)
(declare-fun dist () Int)
(declare-fun call_voiture.toofast () Bool)
(declare-fun speed () Int)
(declare-fun env () Bool)
(declare-fun call_voiture.ite3 () Int)
(declare-fun call_voiture.dist () Int)
(declare-fun call_voiture.flby5 () Int)
(declare-fun call_voiture.flby4 () Int)
(declare-fun _OK_ () Bool)
(declare-fun second () Bool)
(declare-fun toofast () Bool)
(declare-fun call_voiture.meter () Bool)
(declare-fun call_excludes2.excludes () Bool)
(declare-fun call_voiture.flby2 () Bool)
(declare-fun param_m () Bool)
(declare-fun call_voiture.move () Bool)
(declare-fun param_s () Bool)
(declare-fun call_voiture.stop () Bool)
(declare-fun call_voiture.bump () Bool)
(declare-fun call_voiture.second () Bool)
(declare-fun call_voiture.speed () Int)
(declare-fun meter () Bool)
(declare-fun call_voiture.flby () Bool)
(declare-fun time () Int)
(declare-fun call_Sofar.Sofar () Bool)
(declare-fun call_voiture.flby6 () Int)
(declare-fun call_voiture.ite2 () Int)
(declare-fun bump () Bool)
(declare-fun call_voiture.time () Int)
(declare-fun call_Sofar.flby () Bool)
(define-fun .def_373 () Bool (= call_excludes2.excludes call_Sofar.flby))
(define-fun .def_371 () Bool (= call_voiture.flby6 0))
(define-fun .def_369 () Bool (= call_voiture.flby5 0))
(define-fun .def_367 () Bool (= call_voiture.flby4 0))
(define-fun .def_364 () Bool (not call_voiture.flby2))
(define-fun .def_363 () Bool (not call_voiture.flby))
(define-fun .def_365 () Bool (and .def_363 .def_364))
(define-fun .def_366 () Bool (and call_voiture.flby3 .def_365))
(define-fun .def_368 () Bool (and .def_366 .def_367))
(define-fun .def_370 () Bool (and .def_368 .def_369))
(define-fun .def_372 () Bool (and .def_370 .def_371))
(define-fun .def_374 () Bool (and .def_372 .def_373))
(define-fun .def_361 () Bool (= call_Sofar.Sofar call_Sofar.flby))
(define-fun .def_355 () Bool (and param_s param_m))
(define-fun .def_356 () Bool (not .def_355))
(define-fun .def_358 () Bool (= .def_356 call_excludes2.excludes))
(define-fun .def_351 () Bool (= call_voiture.meter call_voiture.flby))
(define-fun .def_348 () Bool (= call_voiture.second call_voiture.flby2))
(define-fun .def_344 () Bool (= call_voiture.move call_voiture.flby3))
(define-fun .def_340 () Bool (= call_voiture.ite3 0))
(define-fun .def_336 () Bool (not call_voiture.move))
(define-fun .def_337 () Bool (or call_voiture.second .def_336))
(define-fun .def_339 () Bool (not .def_337))
(define-fun .def_341 () Bool (or .def_339 .def_340))
(define-fun .def_335 () Bool (= call_voiture.ite2 call_voiture.ite3))
(define-fun .def_338 () Bool (or .def_335 .def_337))
(define-fun .def_342 () Bool (and .def_338 .def_341))
(define-fun .def_345 () Bool (and .def_342 .def_344))
(define-fun .def_331 () Bool (= call_voiture.time call_voiture.flby6))
(define-fun .def_328 () Bool (= call_voiture.speed call_voiture.flby5))
(define-fun .def_325 () Bool (= call_voiture.dist call_voiture.flby4))
(define-fun .def_321 () Bool (= call_voiture.dist 10))
(define-fun .def_322 () Bool (= call_voiture.bump .def_321))
(define-fun .def_318 () Bool (<= 4 call_voiture.time))
(define-fun .def_319 () Bool (= call_voiture.stop .def_318))
(define-fun .def_315 () Bool (<= 3 call_voiture.speed))
(define-fun .def_316 () Bool (= call_voiture.toofast .def_315))
(define-fun .def_313 () Bool (= env call_Sofar.Sofar))
(define-fun .def_310 () Bool (= meter call_voiture.meter))
(define-fun .def_306 () Bool (= second call_voiture.second))
(define-fun .def_302 () Bool (= move call_voiture.move))
(define-fun .def_298 () Bool (= time call_voiture.time))
(define-fun .def_294 () Bool (= speed call_voiture.speed))
(define-fun .def_291 () Bool (= dist call_voiture.dist))
(define-fun .def_287 () Bool (= bump call_voiture.bump))
(define-fun .def_283 () Bool (= stop call_voiture.stop))
(define-fun .def_279 () Bool (= toofast call_voiture.toofast))
(define-fun .def_273 () Bool (<= 4 speed))
(define-fun .def_274 () Bool (not .def_273))
(define-fun .def_271 () Bool (not env))
(define-fun .def_275 () Bool (or .def_271 .def_274))
(define-fun .def_276 () Bool (= _OK_ .def_275))
(define-fun .def_280 () Bool (and .def_276 .def_279))
(define-fun .def_284 () Bool (and .def_280 .def_283))
(define-fun .def_288 () Bool (and .def_284 .def_287))
(define-fun .def_292 () Bool (and .def_288 .def_291))
(define-fun .def_295 () Bool (and .def_292 .def_294))
(define-fun .def_299 () Bool (and .def_295 .def_298))
(define-fun .def_303 () Bool (and .def_299 .def_302))
(define-fun .def_307 () Bool (and .def_303 .def_306))
(define-fun .def_311 () Bool (and .def_307 .def_310))
(define-fun .def_314 () Bool (and .def_311 .def_313))
(define-fun .def_317 () Bool (and .def_314 .def_316))
(define-fun .def_320 () Bool (and .def_317 .def_319))
(define-fun .def_323 () Bool (and .def_320 .def_322))
(define-fun .def_326 () Bool (and .def_323 .def_325))
(define-fun .def_329 () Bool (and .def_326 .def_328))
(define-fun .def_332 () Bool (and .def_329 .def_331))
(define-fun .def_346 () Bool (and .def_332 .def_345))
(define-fun .def_349 () Bool (and .def_346 .def_348))
(define-fun .def_352 () Bool (and .def_349 .def_351))
(define-fun .def_359 () Bool (and .def_352 .def_358))
(define-fun .def_362 () Bool (and .def_359 .def_361))
(define-fun .def_375 () Bool (and .def_362 .def_374))
(assert .def_375)
